
Gurobi 12.0.3 (linux64) logging started Fri Jan  2 04:16:02 2026

Set parameter LogFile to value "/home/bazzo/Scrivania/fjsp_rescheduling/simulations/logs/EX20/gurobi_exp20.log"
Set parameter OutputFlag to value 1
Set parameter TimeLimit to value 2160
Set parameter Presolve to value 2
Set parameter MIPFocus to value 3
Set parameter Heuristics to value 0.1
Set parameter ImproveStartGap to value 0.5
Set parameter Presolve to value 2
Gurobi Optimizer version 12.0.3 build v12.0.3rc0 (linux64 - "Ubuntu 22.04.5 LTS")

CPU model: Intel(R) Xeon(R) W-2145 CPU @ 3.70GHz, instruction set [SSE2|AVX|AVX2|AVX512]
Thread count: 8 physical cores, 16 logical processors, using up to 16 threads

Non-default parameters:
TimeLimit  2160
Heuristics  0.1
MIPFocus  3
Presolve  2
ImproveStartGap  0.5

Optimize a model with 1339 rows, 771 columns and 5093 nonzeros
Model fingerprint: 0x847eb15c
Model has 7 quadratic constraints
Variable types: 7 continuous, 764 integer (714 binary)
Coefficient statistics:
  Matrix range     [1e+00, 3e+03]
  QMatrix range    [1e+00, 1e+00]
  QLMatrix range   [1e+00, 1e+00]
  Objective range  [1e+00, 1e+00]
  Bounds range     [1e+00, 1e+00]
  RHS range        [1e+00, 9e+03]
Presolve removed 856 rows and 559 columns
Presolve time: 0.02s
Presolved: 483 rows, 212 columns, 2589 nonzeros
Presolved model has 7 quadratic constraint(s)
Variable types: 7 continuous, 205 integer (185 binary)
Root relaxation presolve removed 5 rows and 14 columns
Root relaxation presolved: 478 rows, 198 columns, 2566 nonzeros


Root relaxation: objective 3.731000e+03, 27 iterations, 0.00 seconds (0.00 work units)

    Nodes    |    Current Node    |     Objective Bounds      |     Work
 Expl Unexpl |  Obj  Depth IntInf | Incumbent    BestBd   Gap | It/Node Time

H    0     0                    145641.00000 3731.00000  97.4%     -    0s
*    0     0               0    145641.00000 3731.00000  97.4%     -    0s
     0     0 3731.00000    0   19 145641.000 3731.00000  97.4%     -    0s
H    0     0                    132317.00000 3731.00000  97.2%     -    0s
H    0     0                    45479.000000 3731.00000  91.8%     -    0s
H    0     0                    42535.000000 3731.00000  91.2%     -    0s
     0     0 3731.00000    0    7 42535.0000 3731.00000  91.2%     -    0s
     0     0 6231.00000    0    7 42535.0000 6231.00000  85.4%     -    0s
H    0     0                    24526.000000 6231.00000  74.6%     -    0s
H    0     0                    24522.000000 6231.00000  74.6%     -    0s
     0     0 6231.00000    0    6 24522.0000 6231.00000  74.6%     -    0s
     0     0 24522.0000    0    9 24522.0000 24522.0000  0.00%     -    0s

Cutting planes:
  Learned: 11
  Gomory: 4
  Lift-and-project: 1
  Cover: 9
  Implied bound: 13
  StrongCG: 2
  Flow cover: 11
  RLT: 2

Explored 1 nodes (201 simplex iterations) in 0.12 seconds (0.09 work units)
Thread count was 16 (of 16 available processors)

Solution count 6: 24522 24526 42535 ... 145641

Optimal solution found (tolerance 1.00e-04)
Best objective 2.452200000000e+04, best bound 2.452200000000e+04, gap 0.0000%

User-callback calls 1026, time in user-callback 0.00 sec
Set parameter TimeLimit to value 1080
Gurobi Optimizer version 12.0.3 build v12.0.3rc0 (linux64 - "Ubuntu 22.04.5 LTS")

CPU model: Intel(R) Xeon(R) W-2145 CPU @ 3.70GHz, instruction set [SSE2|AVX|AVX2|AVX512]
Thread count: 8 physical cores, 16 logical processors, using up to 16 threads

Non-default parameters:
TimeLimit  1080
Heuristics  0.1
MIPFocus  3
Presolve  2
ImproveStartGap  0.5

Optimize a model with 1340 rows, 771 columns and 5100 nonzeros
Model fingerprint: 0xfd5aa130
Model has 7 quadratic constraints
Variable types: 7 continuous, 764 integer (714 binary)
Coefficient statistics:
  Matrix range     [1e+00, 3e+03]
  QMatrix range    [1e+00, 1e+00]
  QLMatrix range   [1e+00, 1e+00]
  Objective range  [5e-01, 5e-01]
  Bounds range     [1e+00, 1e+00]
  RHS range        [1e+00, 3e+04]

MIP start from previous solve produced solution with objective 28 (0.00s)
Loaded MIP start from previous solve with objective 28

Presolve removed 1335 rows and 757 columns
Presolve time: 0.02s
Presolved: 5 rows, 14 columns, 15 nonzeros
Presolved model has 7 quadratic constraint(s)
Found heuristic solution: objective 5.0000000
Variable types: 7 continuous, 7 integer (0 binary)

Explored 0 nodes (0 simplex iterations) in 0.02 seconds (0.02 work units)
Thread count was 16 (of 16 available processors)

Solution count 2: 5 28 

Optimal solution found (tolerance 1.00e-04)
Best objective 5.000000000000e+00, best bound 5.000000000000e+00, gap 0.0000%

User-callback calls 1486, time in user-callback 0.00 sec
Set parameter TimeLimit to value 360
Gurobi Optimizer version 12.0.3 build v12.0.3rc0 (linux64 - "Ubuntu 22.04.5 LTS")

CPU model: Intel(R) Xeon(R) W-2145 CPU @ 3.70GHz, instruction set [SSE2|AVX|AVX2|AVX512]
Thread count: 8 physical cores, 16 logical processors, using up to 16 threads

Non-default parameters:
TimeLimit  360
Heuristics  0.1
MIPFocus  3
Presolve  2
ImproveStartGap  0.5

Optimize a model with 1342 rows, 771 columns and 5163 nonzeros
Model fingerprint: 0x7ba68387
Model has 7 quadratic constraints
Variable types: 7 continuous, 764 integer (714 binary)
Coefficient statistics:
  Matrix range     [5e-01, 3e+03]
  QMatrix range    [1e+00, 1e+00]
  QLMatrix range   [1e+00, 1e+00]
  Objective range  [1e+00, 1e+00]
  Bounds range     [1e+00, 1e+00]
  RHS range        [1e+00, 3e+04]

MIP start from previous solve produced solution with objective 700 (0.00s)
Loaded MIP start from previous solve with objective 700

Presolve removed 1337 rows and 757 columns
Presolve time: 0.02s
Presolved: 5 rows, 14 columns, 15 nonzeros
Presolved model has 7 quadratic constraint(s)
Variable types: 7 continuous, 7 integer (0 binary)

Explored 0 nodes (0 simplex iterations) in 0.02 seconds (0.02 work units)
Thread count was 16 (of 16 available processors)

Solution count 1: 700 

Optimal solution found (tolerance 1.00e-04)
Best objective 7.000000000000e+02, best bound 7.000000000000e+02, gap 0.0000%

User-callback calls 1484, time in user-callback 0.00 sec
